NAME : instances/clustered-mixed-tsp/instance-31.tsp
COMMENT : No Comment
TYPE : TSP
DIMENSION: 48
EDGE_WEIGHT_TYPE : EUC_2D
NODE_COORD_SECTION
1 526 368 
2 9 852 
3 1478 1448 
4 1830 1532 
5 1596 471 
6 283 1977 
7 880 1181 
8 195 843 
9 535 1193 
10 202 1944 
11 1861 1716 
12 1833 1227 
13 1989 1857 
14 1156 1313 
15 126 1688 
16 539 1422 
17 1060 69 
18 728 998 
19 1121 768 
20 1201 16 
21 92 582 
22 1804 308 
23 54 514 
24 1418 454 
25 1803 860 
26 783 1930 
27 1101 368 
28 1651 120 
29 223 694 
30 25 1294 
31 1391 39 
32 1244 224 
33 1885 1134 
34 994 1679 
35 1972 1999 
36 1402 1785 
37 1942 340 
38 819 1072 
39 1929 1384 
40 1159 269 
41 1117 842 
42 174 390 
43 104 147 
44 700 1684 
45 1114 619 
46 1022 985 
47 942 311 
48 424 282 
EOF
